1 1 2 0
1 -1 -3 0
1 4 5 0
1 -4 2 0
1 4 6 0
1 4 7 0
1 -3 -8 0
1 -3 9 0
1 -3 4 0
1 7 -9 0
1 -2 -4 0
1 10 -11 0
1 -10 -12 0
1 -10 13 0
1 10 2 0
1 14 -5 0
1 -14 6 0
1 -15 16 0
1 15 -13 0
1 17 16 0
1 17 -18 0
1 17 -19 0
1 20 16 0
1 20 -12 0
1 6 15 0
1 -6 -8 0
1 -6 21 0
1 6 -17 0
1 -5 -22 0
1 5 15 0
1 5 6 0
1 23 11 0
1 23 -24 0
1 -23 -25 0
1 -23 9 0
1 23 -14 0
1 23 4 0
1 -16 15 0
1 -16 26 0
1 -16 24 0
1 -27 5 0
1 21 5 0
1 -28 -29 0
1 -28 30 0
1 30 19 0
1 -19 -30 0
1 31 -22 0
1 31 -32 0
1 -31 -21 0
1 18 -33 0
1 18 26 0
1 34 35 0
1 -36 37 0
1 36 -38 0
1 39 -40 0
1 41 42 0
1 41 43 0
1 41 -36 0
1 38 12 0
1 35 36 0
1 -13 -44 0
1 -42 45 0
1 -42 17 0
1 -42 10 0
1 12 -40 0
1 12 37 0
1 12 -42 0
1 -44 -9 0
1 -44 36 0
1 40 11 0
1 40 39 0
1 37 -46 0
1 47 -42 0
1 9 -11 0
1 -9 -48 0
1 9 49 0
1 -9 10 0
1 11 -44 0
1 -11 -49 0
1 11 50 0
1 24 29 0
1 -24 44 0
1 -24 48 0
1 -24 51 0
1 -29 -52 0
1 29 -23 0
1 -29 49 0
1 -29 -50 0
1 48 12 0
1 -48 -33 0
1 -48 24 0
1 48 53 0
1 50 48 0
1 50 -42 0
1 50 -53 0
1 45 -12 0
1 -45 9 0
1 49 54 0
1 -49 45 0
1 49 55 0
1 -49 -56 0
1 -49 -24 0
1 -26 16 0
1 26 -31 0
1 57 54 0
1 -57 48 0
1 -57 -52 0
1 57 51 0
1 57 -50 0
1 33 58 0
1 -59 -60 0
1 59 61 0
1 59 58 0
1 51 -32 0
1 51 -57 0
1 52 -29 0
1 52 62 0
1 -52 26 0
1 52 53 0
1 52 -63 0
1 63 33 0
1 63 -64 0
1 -32 -61 0
1 -32 55 0
1 32 -25 0
1 32 58 0
1 65 -66 0
1 -65 61 0
1 -65 25 0
1 67 -60 0
1 67 58 0
1 -67 -68 0
1 69 -66 0
1 69 60 0
1 69 68 0
1 69 -70 0
1 58 65 0
1 -25 -67 0
1 -25 71 0
1 60 -16 0
1 -60 -67 0
1 -60 25 0
1 60 -69 0
1 -72 73 0
1 74 75 0
1 -76 -58 0
1 -77 61 0
1 70 -77 0
1 -73 -76 0
1 -68 76 0
1 68 77 0
1 68 -31 0
1 68 74 0
1 75 -68 0
1 75 69 0
1 -46 -26 0
1 54 78 0
1 -56 -79 0
1 80 -59 0
1 -79 55 0
1 -79 53 0
1 78 -55 0
1 -78 38 0
1 78 -64 0
1 81 56 0
1 -55 -45 0
1 55 -48 0
1 55 -82 0
1 53 83 0
1 53 -48 0
1 53 49 0
1 -53 -63 0
1 84 -79 0
1 84 -63 0
1 64 -85 0
1 -64 86 0
1 64 -63 0
1 -83 -84 0
1 83 -64 0
1 83 53 0
1 82 87 0
1 82 56 0
1 -82 -88 0
1 86 80 0
1 -62 82 0
1 -62 72 0
1 62 89 0
1 -62 52 0
1 62 -51 0
1 -62 90 0
1 71 -83 0
1 71 51 0
1 87 -89 0
1 -88 87 0
1 -88 82 0
1 88 -90 0
1 89 84 0
1 -90 89 0
